c 1 CONFIG_MODULE_A
c 2 CONFIG_MODULE_B
c 3 CONFIG_MODULE_C
c 4 CONFIG_DEBUG
c 5 CONFIG_OPTIMIZE
c 6 CONFIG_KERNEL_PREEMPTION
c 7 CONFIG_SMP
c 8 CONFIG_CRYPTO
c 9 CONFIG_NETWORKING
c 10 CONFIG_FILESYSTEM
p cnf 10 12
1 2 0
-1 3 0
2 -3 0
4 5 0
-4 -5 0
6 7 0
8 9 0
-8 10 0
1 4 0
2 6 0
-9 10 0
3 7 0
